<number of tasks>
50

<cycle time>
1000

<order strength>
0.598


<task times>
1 45
2 418
3 135
4 69
5 334
6 76
7 70
8 120
9 111
10 164
11 152
12 44
13 118
14 83
15 35
16 39
17 228
18 60
19 57
20 146
21 261
22 121
23 47
24 56
25 29
26 57
27 99
28 31
29 196
30 250
31 130
32 64
33 86
34 103
35 134
36 110
37 189
38 270
39 81
40 111
41 32
42 37
43 66
44 107
45 43
46 47
47 95
48 150
49 104
50 154

<precedence relations>
1,7
2,8
3,9
4,10
5,11
5,12
6,11
6,12
7,17
8,13
9,14
10,15
11,16
11,17
12,17
13,18
14,21
15,22
16,19
17,20
17,21
17,22
17,23
17,24
18,28
19,26
20,25
20,28
20,29
21,28
21,29
22,47
22,49
22,50
23,27
23,28
23,29
24,28
24,29
25,30
26,31
27,32
28,33
28,34
28,35
28,36
29,33
29,34
29,35
29,36
30,34
31,35
32,36
33,37
34,38
34,39
35,38
35,39
36,38
36,39
37,38
37,39
38,40
38,41
38,42
38,43
39,41
39,42
39,43
40,44
41,45
41,46
41,47
41,48
42,45
43,47
43,48
44,48
46,49
46,50

<end>
